<instance format="XCSP3" type="CSP">
  <variables>
    <var id="x0"> 0 5 12 14 </var>
    <var id="x1"> 0 1 6 11 </var>
    <var id="x2"> 0 6 7 12 14 </var>
    <var id="x3"> 6 7 11 14 </var>
    <var id="x4"> 1 12 14 </var>
    <var id="x5"> 0 1 5 7 11 </var>
    <var id="x6"> 0 1 5 7 14 </var>
    <var id="x7"> 1 5..7 12 </var>
    <var id="x8"> 6 7 14 </var>
    <var id="x9"> 3 6 7 9 10 </var>
    <var id="x10"> 3 7 9 10 13 </var>
    <var id="x11"> 3 6 7 13 14 </var>
    <var id="x12"> 3 13 14 </var>
    <var id="x13"> 7 10 </var>
    <var id="x14"> 7 9 14 </var>
    <var id="x15"> 0 3 10 13 14 </var>
    <var id="x16"> 3 7 10 </var>
    <var id="x17"> 0 3 7 14 </var>
    <var id="x18"> 0 3 14 </var>
    <var id="x19"> 1 3 13 14 </var>
    <var id="x20"> 0 1 7 14 </var>
    <var id="x21"> 1 7 </var>
    <var id="x22"> 0 2 4 10 11 </var>
    <var id="x23"> 2 4 9 10 </var>
    <var id="x24"> 0 2 </var>
    <var id="x25"> 3 9..11 </var>
    <var id="x26"> 0 3 11 </var>
    <var id="x27"> 0 3 9 </var>
    <var id="x28"> 0 2 4 9 </var>
    <var id="x29"> 0 5 8 9 12 </var>
    <var id="x30"> 6 9 11 12 </var>
    <var id="x31"> 0 5 8 11 </var>
    <var id="x32"> 6 11 </var>
    <var id="x33"> 0 5 8 11 </var>
    <var id="x34"> 0 5 9 </var>
    <var id="x35"> 5 6 9 12 </var>
    <var id="x36"> 0 5 14 </var>
    <var id="x37"> 0 1 6 11 </var>
    <var id="x38"> 0 5 6 13 14 </var>
    <var id="x39"> 6 11 </var>
    <var id="x40"> 13 </var>
    <var id="x41"> 6 11 13 14 </var>
    <var id="x42"> 1 5 6 </var>
    <var id="x43"> 2 5 9 12 </var>
    <var id="x44"> 2 5 9 10 13 </var>
    <var id="x45"> 5 7 </var>
    <var id="x46"> 2 7 13 </var>
    <var id="x47"> 7 9 12 13 </var>
    <var id="x48"> 2 5 7 9 </var>
    <var id="x49"> 2 5 7 9 12 </var>
    <var id="x50"> 0 2 4 6 </var>
    <var id="x51"> 0 6 13 14 </var>
    <var id="x52"> 2 4 6 13 </var>
    <var id="x53"> 0 2 6 12 14 </var>
    <var id="x54"> 0 6 12 14 </var>
    <var id="x55"> 4 12 13 </var>
    <var id="x56"> 0 12..14 </var>
    <var id="x57"> 2 4 6 </var>
    <var id="x58"> 5 6 </var>
    <var id="x59"> 2 6..8 </var>
    <var id="x60"> 5 6 9 </var>
    <var id="x61"> 4 8 </var>
    <var id="x62"> 5 7 8 </var>
    <var id="x63"> 2 5..7 9 </var>
    <var id="x64"> 2 8 12 14 </var>
    <var id="x65"> 3 10 14 </var>
    <var id="x66"> 3 12 14 </var>
    <var id="x67"> 3 10 12 </var>
    <var id="x68"> 12 14 </var>
    <var id="x69"> 8 10 11 </var>
    <var id="x70"> 2 14 </var>
    <var id="x71"> 2 5 6 9 </var>
    <var id="x72"> 3 6 7 9 </var>
    <var id="x73"> 3 5 7 8 </var>
    <var id="x74"> 3 5 6 9 </var>
    <var id="x75"> 2 3 6 7 </var>
    <var id="x76"> 7 9 </var>
    <var id="x77"> 3 8 </var>
    <var id="x78"> 8 12 14 </var>
    <var id="x79"> 3 6 14 </var>
    <var id="x80"> 6..8 12 14 </var>
    <var id="x81"> 3 7 8 14 </var>
    <var id="x82"> 3 7 12 </var>
    <var id="x83"> 1 7 12 14 </var>
    <var id="x84"> 1 3 8 12 14 </var>
    <var id="x85"> 5 9 13 </var>
    <var id="x86"> 7 9 12 </var>
    <var id="x87"> 0 5 9 12 14 </var>
    <var id="x88"> 7 9 12 13 </var>
    <var id="x89"> 0 7 9 12..14 </var>
    <var id="x90"> 0 5 7 </var>
    <var id="x91"> 0 5 7 9 14 </var>
    <var id="x92"> 0..2 4 10 </var>
    <var id="x93"> 0 10 </var>
    <var id="x94"> 2 4 10 </var>
    <var id="x95"> 2 7 </var>
    <var id="x96"> 0 1 7 12 </var>
    <var id="x97"> 0 1 7 10 </var>
    <var id="x98"> 1 2 7 12 </var>
    <var id="x99"> 0 5 9 14 </var>
    <var id="x100"> 0 1 4 </var>
    <var id="x101"> 4 5 9 </var>
    <var id="x102"> 0 14 </var>
    <var id="x103"> 0 3 5 14 </var>
    <var id="x104"> 3 4 9 </var>
    <var id="x105"> 1 3 4 14 </var>
  </variables>
  <constraints>
    <group>
      <allDifferent> %... </allDifferent>
      <args> x0 x1 x2 x3 x4 x5 x6 x7 </args>
      <args> x8 x9 x10 x11 x12 x13 x14 </args>
      <args> x15 x16 x17 x18 x19 x20 x21 </args>
      <args> x22 x23 x24 x25 x26 x27 x28 </args>
      <args> x29 x30 x31 x32 x33 x34 x35 </args>
      <args> x36 x37 x38 x39 x40 x41 x42 </args>
      <args> x43 x44 x45 x46 x47 x48 x49 </args>
      <args> x50 x51 x52 x53 x54 x55 x56 </args>
      <args> x57 x58 x59 x60 x61 x62 x63 </args>
      <args> x64 x65 x66 x67 x68 x69 x70 </args>
      <args> x71 x72 x73 x74 x75 x76 x77 </args>
      <args> x78 x79 x80 x81 x82 x83 x84 </args>
      <args> x85 x86 x87 x88 x89 x90 x91 </args>
      <args> x92 x93 x94 x95 x96 x97 x98 </args>
      <args> x99 x100 x101 x102 x103 x104 x105 </args>
      <args> x0 x29 x36 x43 x64 x78 x99 </args>
      <args> x1 x22 x37 x50 x57 x92 x100 </args>
      <args> x15 x38 x51 x58 x65 x79 x93 </args>
      <args> x23 x44 x52 x71 x85 x94 x101 </args>
      <args> x2 x8 x24 x53 x59 x80 x102 </args>
      <args> x9 x16 x25 x30 x39 x72 x86 </args>
      <args> x17 x26 x31 x45 x73 x81 x103 </args>
      <args> x18 x27 x54 x60 x66 x74 x87 </args>
      <args> x10 x40 x55 x67 x82 x88 x104 </args>
      <args> x3 x11 x32 x41 x46 x75 x95 </args>
      <args> x47 x56 x68 x76 x83 x89 x96 </args>
      <args> x4 x12 x19 x61 x77 x84 x105 </args>
      <args> x5 x13 x33 x62 x69 x90 x97 </args>
      <args> x6 x14 x20 x28 x34 x48 x70 x91 </args>
      <args> x7 x21 x35 x42 x49 x63 x98 </args>
    </group>
  </constraints>
</instance>

